4 10 200 1
0 200
  0 70.00 70.00 0.00 0.00 0 0 0 1351
  1 33.00 78.00 90.00 20.00 1 1 1 750 809
  2 59.00 52.00 90.00 20.00 1 1 1 553 602
  3 10.00 137.00 90.00 30.00 1 1 1 147 219
  4 4.00 28.00 90.00 10.00 1 1 1 616 661
  5 25.00 26.00 90.00 20.00 1 1 1 128 179
  6 86.00 37.00 90.00 10.00 1 1 1 478 531
  7 1.00 109.00 90.00 10.00 1 1 1 616 680
  8 6.00 135.00 90.00 40.00 1 1 1 351 386
  9 32.00 79.00 90.00 20.00 1 1 1 655 721
  10 24.00 26.00 90.00 20.00 1 1 1 219 271
  11 86.00 36.00 90.00 20.00 1 1 1 384 443
  12 95.00 35.00 90.00 10.00 1 1 1 196 252
  13 63.00 50.00 90.00 10.00 1 1 1 364 416
  14 100.00 106.00 90.00 10.00 1 1 1 567 626
  15 99.00 112.00 90.00 20.00 1 1 1 846 911
  16 36.00 135.00 90.00 10.00 1 1 1 598 669
  17 57.00 59.00 90.00 10.00 1 1 1 824 890
  18 8.00 124.00 90.00 10.00 1 1 1 231 298
  19 85.00 106.00 90.00 20.00 1 1 1 186 253
  20 103.00 69.00 90.00 30.00 1 1 1 33 93
  21 109.00 131.00 90.00 20.00 1 1 1 72 141
  22 43.00 140.00 90.00 10.00 1 1 1 410 470
  23 115.00 134.00 90.00 30.00 1 1 1 140 199
  24 98.00 70.00 90.00 10.00 1 1 1 467 511
  25 112.00 67.00 90.00 10.00 1 1 1 462 534
  26 102.00 104.00 90.00 20.00 1 1 1 201 258
  27 93.00 75.00 90.00 30.00 1 1 1 178 238
  28 90.00 104.00 90.00 20.00 1 1 1 845 910
  29 127.00 108.00 90.00 10.00 1 1 1 677 743
  30 84.00 99.00 90.00 20.00 1 1 1 32 102
  31 113.00 69.00 90.00 20.00 1 1 1 370 440
  32 129.00 9.00 90.00 10.00 1 1 1 84 147
  33 18.00 38.00 90.00 30.00 1 1 1 582 638
  34 30.00 27.00 90.00 10.00 1 1 1 772 835
  35 25.00 80.00 90.00 20.00 1 1 1 380 440
  36 17.00 37.00 90.00 30.00 1 1 1 493 544
  37 32.00 106.00 90.00 10.00 1 1 1 602 657
  38 43.00 135.00 90.00 10.00 1 1 1 215 293
  39 61.00 59.00 90.00 20.00 1 1 1 931 971
  40 104.00 106.00 90.00 20.00 1 1 1 390 434
  41 109.00 71.00 90.00 20.00 1 1 1 95 163
  42 121.00 110.00 90.00 30.00 1 1 1 870 923
  43 61.00 48.00 90.00 20.00 1 1 1 448 517
  44 74.00 99.00 90.00 20.00 1 1 1 176 243
  45 89.00 73.00 90.00 10.00 1 1 1 19 94
  46 21.00 25.00 90.00 20.00 1 1 1 405 453
  47 99.00 28.00 90.00 30.00 1 1 1 392 442
  48 101.00 96.00 90.00 10.00 1 1 1 101 160
  49 9.00 114.00 90.00 20.00 1 1 1 904 954
  50 121.00 112.00 90.00 20.00 1 1 1 221 277
  51 137.00 6.00 90.00 10.00 1 1 1 611 678
  52 118.00 131.00 90.00 20.00 1 1 1 782 857
  53 34.00 82.00 90.00 10.00 1 1 1 928 1000
  54 4.00 125.00 90.00 30.00 1 1 1 319 398
  55 26.00 105.00 90.00 40.00 1 1 1 115 179
  56 35.00 123.00 90.00 20.00 1 1 1 1130 1198
  57 21.00 48.00 90.00 10.00 1 1 1 53 123
  58 21.00 115.00 90.00 10.00 1 1 1 306 376
  59 99.00 108.00 90.00 20.00 1 1 1 952 992
  60 1.00 34.00 90.00 20.00 1 1 1 77 132
  61 94.00 70.00 90.00 20.00 1 1 1 556 610
  62 74.00 93.00 90.00 20.00 1 1 1 23 66
  63 32.00 128.00 90.00 20.00 1 1 1 1079 1123
  64 94.00 73.00 90.00 10.00 1 1 1 741 791
  65 135.00 3.00 90.00 20.00 1 1 1 250 300
  66 97.00 28.00 90.00 20.00 1 1 1 110 170
  67 59.00 56.00 90.00 20.00 1 1 1 745 780
  68 80.00 97.00 90.00 10.00 1 1 1 457 518
  69 134.00 31.00 90.00 20.00 1 1 1 508 566
  70 103.00 34.00 90.00 30.00 1 1 1 577 636
  71 30.00 79.00 90.00 20.00 1 1 1 561 632
  72 4.00 30.00 90.00 40.00 1 1 1 693 768
  73 87.00 39.00 90.00 20.00 1 1 1 35 92
  74 90.00 101.00 90.00 10.00 1 1 1 933 1008
  75 119.00 136.00 90.00 30.00 1 1 1 334 384
  76 78.00 92.00 90.00 30.00 1 1 1 555 610
  77 110.00 66.00 90.00 10.00 1 1 1 650 710
  78 62.00 58.00 90.00 20.00 1 1 1 173 229
  79 127.00 112.00 90.00 20.00 1 1 1 595 636
  80 113.00 71.00 90.00 10.00 1 1 1 286 341
  81 34.00 104.00 90.00 10.00 1 1 1 683 760
  82 2.00 28.00 90.00 10.00 1 1 1 148 199
  83 17.00 43.00 90.00 10.00 1 1 1 205 279
  84 1.00 24.00 90.00 10.00 1 1 1 333 385
  85 112.00 71.00 90.00 20.00 1 1 1 193 252
  86 135.00 0.00 90.00 10.00 1 1 1 331 405
  87 125.00 108.00 90.00 20.00 1 1 1 778 825
  88 8.00 138.00 90.00 30.00 1 1 1 234 316
  89 103.00 111.00 90.00 20.00 1 1 1 668 719
  90 57.00 53.00 90.00 10.00 1 1 1 641 697
  91 98.00 31.00 90.00 20.00 1 1 1 480 541
  92 116.00 132.00 90.00 10.00 1 1 1 870 953
  93 28.00 99.00 90.00 10.00 1 1 1 51 93
  94 137.00 3.00 90.00 20.00 1 1 1 522 581
  95 29.00 28.00 90.00 10.00 1 1 1 865 925
  96 94.00 105.00 90.00 10.00 1 1 1 656 728
  97 92.00 107.00 90.00 30.00 1 1 1 465 532
  98 10.00 134.00 90.00 10.00 1 1 1 629 677
  99 34.00 79.00 90.00 10.00 1 1 1 841 902
  100 94.00 72.00 90.00 20.00 1 1 1 647 703
  101 35.00 76.00 90.00 10.00 1 1 1 35 91
  102 76.00 99.00 90.00 20.00 1 1 1 273 330
  103 127.00 28.00 90.00 30.00 1 1 1 128 195
  104 8.00 119.00 90.00 20.00 1 1 1 142 197
  105 102.00 110.00 90.00 10.00 1 1 1 754 814
  106 24.00 24.00 90.00 10.00 1 1 1 583 647
  107 64.00 61.00 90.00 20.00 1 1 1 1011 1077
  108 22.00 38.00 90.00 20.00 1 1 1 950 1003
  109 88.00 72.00 90.00 30.00 1 1 1 925 979
  110 107.00 63.00 90.00 30.00 1 1 1 748 800
  111 33.00 131.00 90.00 30.00 1 1 1 979 1037
  112 123.00 112.00 90.00 20.00 1 1 1 405 459
  113 67.00 55.00 90.00 10.00 1 1 1 15 62
  114 39.00 128.00 90.00 10.00 1 1 1 65 133
  115 136.00 0.00 90.00 30.00 1 1 1 426 491
  116 93.00 36.00 90.00 20.00 1 1 1 98 166
  117 7.00 115.00 90.00 10.00 1 1 1 801 872
  118 21.00 44.00 90.00 20.00 1 1 1 115 180
  119 28.00 74.00 90.00 20.00 1 1 1 188 260
  120 86.00 102.00 90.00 10.00 1 1 1 93 159
  121 19.00 37.00 90.00 20.00 1 1 1 665 738
  122 84.00 36.00 90.00 10.00 1 1 1 568 626
  123 118.00 108.00 90.00 10.00 1 1 1 972 1008
  124 132.00 24.00 90.00 10.00 1 1 1 311 384
  125 6.00 25.00 90.00 10.00 1 1 1 516 574
  126 28.00 78.00 90.00 10.00 1 1 1 479 529
  127 2.00 132.00 90.00 10.00 1 1 1 526 584
  128 22.00 22.00 90.00 10.00 1 1 1 494 550
  129 88.00 35.00 90.00 20.00 1 1 1 285 358
  130 94.00 104.00 90.00 10.00 1 1 1 754 813
  131 74.00 96.00 90.00 30.00 1 1 1 80 153
  132 0.00 117.00 90.00 30.00 1 1 1 515 585
  133 99.00 96.00 90.00 10.00 1 1 1 38 93
  134 119.00 114.00 90.00 20.00 1 1 1 128 185
  135 28.00 107.00 90.00 20.00 1 1 1 206 275
  136 133.00 12.00 90.00 10.00 1 1 1 797 874
  137 35.00 102.00 90.00 10.00 1 1 1 877 938
  138 36.00 105.00 90.00 20.00 1 1 1 776 852
  139 84.00 39.00 90.00 20.00 1 1 1 659 720
  140 34.00 138.00 90.00 20.00 1 1 1 704 749
  141 136.00 29.00 90.00 10.00 1 1 1 406 482
  142 33.00 133.00 90.00 20.00 1 1 1 890 941
  143 16.00 39.00 90.00 20.00 1 1 1 314 358
  144 32.00 77.00 90.00 20.00 1 1 1 100 157
  145 122.00 131.00 90.00 20.00 1 1 1 608 661
  146 77.00 100.00 90.00 20.00 1 1 1 356 429
  147 96.00 26.00 90.00 10.00 1 1 1 202 262
  148 127.00 29.00 90.00 20.00 1 1 1 70 141
  149 91.00 95.00 90.00 20.00 1 1 1 1036 1097
  150 42.00 136.00 90.00 10.00 1 1 1 310 381
  151 36.00 132.00 90.00 10.00 1 1 1 509 571
  152 103.00 106.00 90.00 30.00 1 1 1 296 347
  153 107.00 105.00 90.00 10.00 1 1 1 472 539
  154 96.00 74.00 90.00 10.00 1 1 1 351 437
  155 63.00 57.00 90.00 10.00 1 1 1 79 140
  156 122.00 113.00 90.00 20.00 1 1 1 307 374
  157 14.00 131.00 90.00 10.00 1 1 1 712 784
  158 30.00 31.00 90.00 20.00 1 1 1 960 1016
  159 40.00 132.00 90.00 20.00 1 1 1 137 182
  160 99.00 26.00 90.00 40.00 1 1 1 287 363
  161 10.00 118.00 90.00 10.00 1 1 1 76 144
  162 102.00 60.00 90.00 30.00 1 1 1 840 900
  163 120.00 136.00 90.00 10.00 1 1 1 417 482
  164 97.00 29.00 90.00 30.00 1 1 1 49 119
  165 19.00 39.00 90.00 10.00 1 1 1 764 823
  166 27.00 77.00 90.00 10.00 1 1 1 284 349
  167 30.00 24.00 90.00 20.00 1 1 1 673 748
  168 126.00 112.00 90.00 10.00 1 1 1 507 543
  169 105.00 110.00 90.00 20.00 1 1 1 567 634
  170 118.00 114.00 90.00 10.00 1 1 1 65 126
  171 135.00 6.00 90.00 30.00 1 1 1 153 210
  172 111.00 66.00 90.00 20.00 1 1 1 561 617
  173 95.00 77.00 90.00 10.00 1 1 1 278 325
  174 139.00 10.00 90.00 30.00 1 1 1 723 756
  175 61.00 54.00 90.00 10.00 1 1 1 262 329
  176 16.00 38.00 90.00 20.00 1 1 1 387 466
  177 16.00 138.00 90.00 10.00 1 1 1 86 142
  178 91.00 78.00 90.00 10.00 1 1 1 88 141
  179 91.00 71.00 90.00 20.00 1 1 1 829 890
  180 0.00 27.00 90.00 30.00 1 1 1 241 292
  181 6.00 113.00 90.00 20.00 1 1 1 720 768
  182 119.00 139.00 90.00 20.00 1 1 1 234 298
  183 35.00 99.00 90.00 20.00 1 1 1 976 1025
  184 31.00 112.00 90.00 20.00 1 1 1 401 481
  185 5.00 119.00 90.00 20.00 1 1 1 425 484
  186 3.00 135.00 90.00 20.00 1 1 1 433 491
  187 30.00 136.00 90.00 10.00 1 1 1 792 850
  188 20.00 39.00 90.00 10.00 1 1 1 855 913
  189 131.00 11.00 90.00 10.00 1 1 1 895 960
  190 28.00 33.00 90.00 20.00 1 1 1 55 128
  191 4.00 23.00 90.00 10.00 1 1 1 414 491
  192 87.00 108.00 90.00 20.00 1 1 1 275 350
  193 21.00 26.00 90.00 20.00 1 1 1 311 365
  194 121.00 134.00 90.00 20.00 1 1 1 517 567
  195 119.00 130.00 90.00 20.00 1 1 1 692 765
  196 91.00 108.00 90.00 10.00 1 1 1 384 430
  197 130.00 27.00 90.00 30.00 1 1 1 229 280
  198 101.00 107.00 90.00 10.00 1 1 1 1038 1090
  199 34.00 108.00 90.00 10.00 1 1 1 506 566
  200 131.00 31.00 90.00 20.00 1 1 1 604 657
